decision_x1=[0,7];
decision_x2=[0,7];
decision_x3=[0,7];
decision_x4=[0,7];
decision_x5=[0,7];
decision_x6=[0,7];
decision_x7=[0,7];
decision_x8=[0,7];
decision_x9=[0,7];
decision_x10=[0,7];
decision_x11=[0,7];
decision_x12=[0,7];
decision_x13=[0,7];
decision_x14=[0,7];
decision_x15=[0,7];
decision_x16=[0,7];
random_y1=[0,7];
random_y2=[0,7];
random_y3=[0,7];
random_y4=[0,7];
random_y5=[0,7];
random_y6=[0,7];
random_y7=[0,7];
constraint_x2_x1=[
0,0,2.8|
0,1,7.3|
0,2,8.7|
0,3,0.73|
0,4,4.5|
0,5,4.8|
0,6,6.8|
0,7,7.8|
1,0,2.6|
1,1,9.4|
1,2,8.2|
1,3,8.4|
1,4,8.7|
1,5,6|
1,6,8.9|
1,7,5|
2,0,4.9|
2,1,8.7|
2,2,1.4|
2,3,2|
2,4,8.3|
2,5,4.8|
2,6,2.8|
2,7,5.3|
3,0,1.2|
3,1,0.37|
3,2,0.0023|
3,3,1|
3,4,5.3|
3,5,4.2|
3,6,8.9|
3,7,4.9|
4,0,6.1|
4,1,5.3|
4,2,0.69|
4,3,1.6|
4,4,2.1|
4,5,9.4|
4,6,6.4|
4,7,3.3|
5,0,1.3|
5,1,1.4|
5,2,3.1|
5,3,9.7|
5,4,1.7|
5,5,9|
5,6,8|
5,7,5.5|
6,0,6.6|
6,1,0.66|
6,2,0.99|
6,3,8.8|
6,4,7.7|
6,5,9.4|
6,6,6.6|
6,7,0.58|
7,0,0.24|
7,1,2.6|
7,2,8.3|
7,3,0.71|
7,4,9.1|
7,5,8.4|
7,6,2.3|
7,7,4.3|
];
constraint_x3_x2=[
0,0,2.7|
0,1,5.8|
0,2,5.8|
0,3,5.3|
0,4,4.9|
0,5,1.2|
0,6,6.6|
0,7,4|
1,0,3.6|
1,1,7.3|
1,2,5.4|
1,3,4.9|
1,4,2.3|
1,5,9.8|
1,6,3.4|
1,7,2.2|
2,0,8.4|
2,1,2.2|
2,2,3.2|
2,3,7.8|
2,4,9.9|
2,5,7.4|
2,6,2.5|
2,7,1.4|
3,0,1.6|
3,1,1.2|
3,2,2.6|
3,3,0.68|
3,4,6.1|
3,5,1.5|
3,6,8.9|
3,7,6.7|
4,0,5.7|
4,1,9.6|
4,2,2.9|
4,3,4.3|
4,4,1.4|
4,5,6.4|
4,6,3.2|
4,7,3.9|
5,0,1|
5,1,7.3|
5,2,5|
5,3,7.6|
5,4,5.8|
5,5,4.4|
5,6,2.1|
5,7,2.6|
6,0,1.6|
6,1,1|
6,2,9.7|
6,3,4.7|
6,4,8.7|
6,5,9|
6,6,4.2|
6,7,6|
7,0,3|
7,1,2.2|
7,2,7.3|
7,3,9.9|
7,4,7.3|
7,5,6.7|
7,6,5|
7,7,0.84|
];
constraint_x4_x3=[
0,0,8.8|
0,1,2.1|
0,2,1.9|
0,3,8.2|
0,4,0.24|
0,5,5.8|
0,6,0.12|
0,7,4.2|
1,0,4.1|
1,1,2|
1,2,4.1|
1,3,2|
1,4,8.6|
1,5,7.4|
1,6,7.3|
1,7,3.5|
2,0,8.1|
2,1,7.7|
2,2,2.6|
2,3,5.2|
2,4,2.8|
2,5,6|
2,6,2.8|
2,7,5.5|
3,0,0.38|
3,1,9.5|
3,2,4.3|
3,3,2.3|
3,4,2.4|
3,5,9.6|
3,6,0.14|
3,7,3.5|
4,0,6.1|
4,1,3.8|
4,2,9.3|
4,3,0.9|
4,4,6.1|
4,5,0.25|
4,6,5.5|
4,7,9.7|
5,0,1.8|
5,1,1.8|
5,2,7.7|
5,3,8.8|
5,4,5.5|
5,5,6.5|
5,6,6.7|
5,7,4.8|
6,0,5.9|
6,1,3.5|
6,2,9.2|
6,3,9.2|
6,4,10|
6,5,3.8|
6,6,4.9|
6,7,0.72|
7,0,7.2|
7,1,9.2|
7,2,0.86|
7,3,3.4|
7,4,7.4|
7,5,4.3|
7,6,6.6|
7,7,0.84|
];
constraint_x5_x1=[
0,0,5.1|
0,1,7.9|
0,2,3.7|
0,3,8|
0,4,4.3|
0,5,6.9|
0,6,4.4|
0,7,9.6|
1,0,4.3|
1,1,2.6|
1,2,2.3|
1,3,1.1|
1,4,1.2|
1,5,5.1|
1,6,8.6|
1,7,1.4|
2,0,4.7|
2,1,9.1|
2,2,2.5|
2,3,9.5|
2,4,7.8|
2,5,5.4|
2,6,2.9|
2,7,7.7|
3,0,1.9|
3,1,7.5|
3,2,3|
3,3,1.8|
3,4,1.7|
3,5,7|
3,6,9.2|
3,7,5.4|
4,0,2.3|
4,1,0.43|
4,2,6.1|
4,3,3.1|
4,4,6.9|
4,5,7.8|
4,6,7.9|
4,7,0.73|
5,0,8.8|
5,1,7|
5,2,3.6|
5,3,3|
5,4,2.4|
5,5,2.1|
5,6,5.1|
5,7,4.9|
6,0,4|
6,1,4.4|
6,2,6.4|
6,3,6|
6,4,5.1|
6,5,5.1|
6,6,1.2|
6,7,2.5|
7,0,8.9|
7,1,2.5|
7,2,4|
7,3,0.021|
7,4,3|
7,5,7.9|
7,6,0.65|
7,7,2.8|
];
constraint_x6_x2=[
0,0,2.5|
0,1,5.2|
0,2,4.7|
0,3,0.42|
0,4,1|
0,5,0.13|
0,6,8.4|
0,7,2.9|
1,0,4.3|
1,1,0.32|
1,2,4|
1,3,6.6|
1,4,4.9|
1,5,9.9|
1,6,9.8|
1,7,9.6|
2,0,8.6|
2,1,5.4|
2,2,3.7|
2,3,6.1|
2,4,1.3|
2,5,3.7|
2,6,2.5|
2,7,0.44|
3,0,3.7|
3,1,7.5|
3,2,6.4|
3,3,6.3|
3,4,1.5|
3,5,7.2|
3,6,8.4|
3,7,3|
4,0,5.8|
4,1,4.1|
4,2,4|
4,3,6.9|
4,4,1.9|
4,5,3.3|
4,6,4.9|
4,7,3|
5,0,5.3|
5,1,5.9|
5,2,3.5|
5,3,5.6|
5,4,4.3|
5,5,9|
5,6,8.5|
5,7,4|
6,0,2.2|
6,1,8.3|
6,2,8.8|
6,3,5.6|
6,4,8.4|
6,5,1.3|
6,6,3.7|
6,7,0.6|
7,0,1.8|
7,1,5.5|
7,2,2.2|
7,3,0.49|
7,4,5|
7,5,5.1|
7,6,6.7|
7,7,0.15|
];
constraint_x6_x5=[
0,0,1.1|
0,1,6.2|
0,2,1|
0,3,9.4|
0,4,7.4|
0,5,7.4|
0,6,0.63|
0,7,0.87|
1,0,3.1|
1,1,6.5|
1,2,0.12|
1,3,9.4|
1,4,8.2|
1,5,6.1|
1,6,1.9|
1,7,3.2|
2,0,7|
2,1,7.2|
2,2,4.9|
2,3,7.8|
2,4,2.3|
2,5,7.9|
2,6,9.8|
2,7,2.4|
3,0,2.8|
3,1,9.9|
3,2,0.96|
3,3,1|
3,4,6.4|
3,5,2.8|
3,6,5.5|
3,7,8.9|
4,0,0.31|
4,1,0.67|
4,2,8.3|
4,3,7.9|
4,4,8.2|
4,5,9.3|
4,6,6.8|
4,7,10|
5,0,3.3|
5,1,9.1|
5,2,6.9|
5,3,5.3|
5,4,1.4|
5,5,5|
5,6,9.7|
5,7,6.5|
6,0,4.7|
6,1,9.2|
6,2,0.63|
6,3,7.7|
6,4,1.8|
6,5,8|
6,6,7.3|
6,7,8.9|
7,0,1.9|
7,1,5.9|
7,2,1.6|
7,3,6.3|
7,4,7.2|
7,5,6.9|
7,6,6.4|
7,7,2.4|
];
constraint_x7_x3=[
0,0,0.76|
0,1,7.5|
0,2,0.21|
0,3,9.3|
0,4,0.76|
0,5,1.6|
0,6,0.18|
0,7,2.3|
1,0,6.2|
1,1,0.75|
1,2,5|
1,3,7.7|
1,4,4|
1,5,9|
1,6,2.5|
1,7,7.3|
2,0,0.92|
2,1,3.5|
2,2,0.95|
2,3,6.9|
2,4,8.6|
2,5,5.7|
2,6,8.4|
2,7,5|
3,0,3.9|
3,1,4.2|
3,2,6.1|
3,3,4.3|
3,4,6.7|
3,5,2.7|
3,6,1.7|
3,7,1.9|
4,0,0.83|
4,1,7.4|
4,2,2.6|
4,3,5|
4,4,3.1|
4,5,0.66|
4,6,3|
4,7,3.6|
5,0,0.0027|
5,1,9.3|
5,2,1.9|
5,3,9.6|
5,4,8.3|
5,5,3|
5,6,5.1|
5,7,6.2|
6,0,9.6|
6,1,1.6|
6,2,4.3|
6,3,4.3|
6,4,3.1|
6,5,5.3|
6,6,6.3|
6,7,5.6|
7,0,3.4|
7,1,6.1|
7,2,2.2|
7,3,3.3|
7,4,4.9|
7,5,5.8|
7,6,0.4|
7,7,8.4|
];
constraint_x7_x6=[
0,0,5.5|
0,1,2.7|
0,2,2.5|
0,3,1.3|
0,4,1.4|
0,5,4.1|
0,6,3.6|
0,7,3.6|
1,0,2.8|
1,1,4.6|
1,2,4|
1,3,0.5|
1,4,0.45|
1,5,9.3|
1,6,6.7|
1,7,0.43|
2,0,10|
2,1,8.3|
2,2,6.6|
2,3,4.3|
2,4,0.089|
2,5,0.29|
2,6,8.6|
2,7,8.1|
3,0,6.1|
3,1,9.2|
3,2,8.7|
3,3,9.4|
3,4,8.6|
3,5,9.4|
3,6,8.3|
3,7,8.8|
4,0,9.2|
4,1,2.6|
4,2,4.6|
4,3,3.7|
4,4,5.4|
4,5,0.04|
4,6,5.3|
4,7,2.9|
5,0,2.2|
5,1,7.9|
5,2,1.1|
5,3,6.3|
5,4,9.1|
5,5,3.3|
5,6,6.8|
5,7,6.9|
6,0,8.1|
6,1,7.9|
6,2,3.2|
6,3,0.11|
6,4,6.6|
6,5,1|
6,6,4.4|
6,7,5.4|
7,0,5.6|
7,1,9|
7,2,1.4|
7,3,6|
7,4,6.4|
7,5,6.3|
7,6,9.3|
7,7,0.35|
];
constraint_x8_x4=[
0,0,4.2|
0,1,6.8|
0,2,0.41|
0,3,2.4|
0,4,7.7|
0,5,6|
0,6,3.1|
0,7,3.9|
1,0,4.6|
1,1,1.4|
1,2,8.1|
1,3,2.2|
1,4,1.6|
1,5,9.6|
1,6,3.4|
1,7,4|
2,0,0.63|
2,1,3.7|
2,2,6.2|
2,3,3.4|
2,4,6.3|
2,5,4.4|
2,6,6.1|
2,7,8.3|
3,0,8.6|
3,1,6.5|
3,2,7.6|
3,3,9.4|
3,4,7.8|
3,5,2.3|
3,6,6.8|
3,7,5.2|
4,0,8.7|
4,1,3.2|
4,2,5.6|
4,3,6.3|
4,4,7.6|
4,5,9.2|
4,6,2.9|
4,7,6.8|
5,0,5|
5,1,3.5|
5,2,7|
5,3,7.6|
5,4,6.8|
5,5,1.3|
5,6,7.6|
5,7,4.8|
6,0,1.4|
6,1,0.0027|
6,2,8.3|
6,3,5.5|
6,4,9|
6,5,4.4|
6,6,8.2|
6,7,3.3|
7,0,7.4|
7,1,7.3|
7,2,7.5|
7,3,2.3|
7,4,5|
7,5,7.4|
7,6,4|
7,7,6.1|
];
constraint_x8_x7=[
0,0,9.5|
0,1,5|
0,2,9.8|
0,3,2.4|
0,4,9.8|
0,5,5.4|
0,6,4.7|
0,7,8.6|
1,0,10|
1,1,9.3|
1,2,3.7|
1,3,1.7|
1,4,0.79|
1,5,5.3|
1,6,0.44|
1,7,7|
2,0,1.6|
2,1,3.2|
2,2,0.27|
2,3,5.9|
2,4,2.7|
2,5,1.7|
2,6,0.54|
2,7,1.4|
3,0,8.2|
3,1,1.1|
3,2,8.8|
3,3,7.8|
3,4,3.8|
3,5,1.2|
3,6,3.5|
3,7,1.3|
4,0,7.1|
4,1,3.5|
4,2,2.7|
4,3,9.9|
4,4,9.4|
4,5,8.5|
4,6,7|
4,7,0.51|
5,0,2.8|
5,1,8.6|
5,2,4.1|
5,3,6.7|
5,4,10|
5,5,0.75|
5,6,2.2|
5,7,3.3|
6,0,4.8|
6,1,4.8|
6,2,1.8|
6,3,6.8|
6,4,7.8|
6,5,5.5|
6,6,6.3|
6,7,5|
7,0,7.2|
7,1,5.8|
7,2,3.3|
7,3,9.7|
7,4,0.56|
7,5,8.3|
7,6,8.3|
7,7,0.71|
];
constraint_x9_x5=[
0,0,0.31|
0,1,1.8|
0,2,3.2|
0,3,0.92|
0,4,0.38|
0,5,6.6|
0,6,3.5|
0,7,7.5|
1,0,4.3|
1,1,8|
1,2,5.5|
1,3,7|
1,4,4.7|
1,5,5.5|
1,6,9.4|
1,7,4.6|
2,0,6.7|
2,1,0.31|
2,2,4.6|
2,3,1.2|
2,4,1.7|
2,5,7.5|
2,6,6.3|
2,7,4.8|
3,0,5.9|
3,1,2.4|
3,2,0.47|
3,3,8.5|
3,4,3.3|
3,5,4.1|
3,6,2.5|
3,7,6.3|
4,0,1.3|
4,1,4.2|
4,2,2.3|
4,3,7.9|
4,4,3.5|
4,5,6.3|
4,6,1.9|
4,7,1.9|
5,0,7.4|
5,1,2.9|
5,2,1.6|
5,3,7.8|
5,4,6.1|
5,5,7.7|
5,6,5.9|
5,7,4.6|
6,0,4.2|
6,1,7.2|
6,2,3.3|
6,3,7.8|
6,4,4.8|
6,5,2.4|
6,6,2.2|
6,7,1.8|
7,0,4.5|
7,1,4.8|
7,2,9|
7,3,6.6|
7,4,9.8|
7,5,1.6|
7,6,0.15|
7,7,7.3|
];
constraint_x10_x6=[
0,0,3.7|
0,1,6|
0,2,5|
0,3,1|
0,4,8.7|
0,5,2.5|
0,6,7.4|
0,7,4.1|
1,0,9.8|
1,1,2|
1,2,5.1|
1,3,8.3|
1,4,9.9|
1,5,6.2|
1,6,7.4|
1,7,4.3|
2,0,8.5|
2,1,7.2|
2,2,2.3|
2,3,3.7|
2,4,4.9|
2,5,0.31|
2,6,9.7|
2,7,6|
3,0,6.3|
3,1,6.1|
3,2,6|
3,3,6.8|
3,4,9|
3,5,8.8|
3,6,7.8|
3,7,8.8|
4,0,3.4|
4,1,6.1|
4,2,1.7|
4,3,6.7|
4,4,2.5|
4,5,9|
4,6,1.1|
4,7,3.1|
5,0,0.38|
5,1,7.3|
5,2,9.7|
5,3,4.8|
5,4,8.5|
5,5,9.8|
5,6,3.6|
5,7,7.1|
6,0,5|
6,1,2|
6,2,3|
6,3,0.2|
6,4,6.8|
6,5,3.3|
6,6,9.9|
6,7,8.7|
7,0,7.3|
7,1,1.4|
7,2,9.6|
7,3,1.6|
7,4,2.2|
7,5,6.2|
7,6,2.8|
7,7,3.1|
];
constraint_x11_x7=[
0,0,2.4|
0,1,0.86|
0,2,8.4|
0,3,0.038|
0,4,0.99|
0,5,3.1|
0,6,7.4|
0,7,4.6|
1,0,5.9|
1,1,7.1|
1,2,0.48|
1,3,0.036|
1,4,0.55|
1,5,4.5|
1,6,3.8|
1,7,7|
2,0,5.8|
2,1,5.9|
2,2,1.6|
2,3,7.6|
2,4,7.5|
2,5,8.7|
2,6,3.2|
2,7,0.098|
3,0,3.6|
3,1,4.4|
3,2,9.2|
3,3,2.1|
3,4,4.6|
3,5,1.1|
3,6,5.2|
3,7,7.6|
4,0,9.9|
4,1,7.7|
4,2,4.8|
4,3,5.3|
4,4,0.29|
4,5,7.4|
4,6,9.6|
4,7,5.4|
5,0,5.9|
5,1,3|
5,2,6.7|
5,3,8.2|
5,4,6.7|
5,5,6.6|
5,6,9.7|
5,7,7.5|
6,0,6.7|
6,1,1.5|
6,2,0.25|
6,3,5.9|
6,4,9.5|
6,5,5.6|
6,6,3.5|
6,7,7.2|
7,0,5.5|
7,1,5.6|
7,2,2.6|
7,3,6|
7,4,8.6|
7,5,8.3|
7,6,5.7|
7,7,2.9|
];
constraint_x12_x8=[
0,0,3.2|
0,1,0.16|
0,2,2.8|
0,3,1.5|
0,4,9.7|
0,5,8.1|
0,6,8.8|
0,7,9.7|
1,0,0.57|
1,1,4.6|
1,2,7.7|
1,3,5.7|
1,4,6.7|
1,5,4.2|
1,6,0.64|
1,7,8.1|
2,0,6.1|
2,1,6|
2,2,2.6|
2,3,2.8|
2,4,2.8|
2,5,7.8|
2,6,2.4|
2,7,5.8|
3,0,5.5|
3,1,6.2|
3,2,0.79|
3,3,4|
3,4,2.8|
3,5,8.9|
3,6,6.3|
3,7,4.2|
4,0,0.84|
4,1,4.3|
4,2,4.4|
4,3,6.8|
4,4,2.1|
4,5,0.012|
4,6,8.1|
4,7,8.6|
5,0,0.84|
5,1,9|
5,2,3.5|
5,3,7.4|
5,4,7.3|
5,5,8.7|
5,6,6.6|
5,7,3.4|
6,0,7.8|
6,1,7.8|
6,2,5.5|
6,3,8.2|
6,4,1.7|
6,5,0.9|
6,6,9.1|
6,7,1.9|
7,0,9.8|
7,1,9.8|
7,2,2.8|
7,3,7.8|
7,4,9|
7,5,7.8|
7,6,9|
7,7,0.35|
];
constraint_x13_x9=[
0,0,0.96|
0,1,5.4|
0,2,5.3|
0,3,6.9|
0,4,5.9|
0,5,9.8|
0,6,9.3|
0,7,6.2|
1,0,3.9|
1,1,0.01|
1,2,9.9|
1,3,0.66|
1,4,6.6|
1,5,3.4|
1,6,4.7|
1,7,5.5|
2,0,5.1|
2,1,9.7|
2,2,8.5|
2,3,2.3|
2,4,4.5|
2,5,4.9|
2,6,4.6|
2,7,4|
3,0,9.5|
3,1,2.6|
3,2,1.6|
3,3,5.4|
3,4,4|
3,5,6.6|
3,6,5.8|
3,7,9.6|
4,0,1.7|
4,1,4.4|
4,2,7.5|
4,3,7.1|
4,4,5.5|
4,5,0.85|
4,6,9.9|
4,7,0.35|
5,0,0.31|
5,1,7.2|
5,2,9.4|
5,3,7|
5,4,8.6|
5,5,2.5|
5,6,3.1|
5,7,8.7|
6,0,4.8|
6,1,6.9|
6,2,3.2|
6,3,8.1|
6,4,8.9|
6,5,7.2|
6,6,2.8|
6,7,6|
7,0,6.8|
7,1,1.8|
7,2,2.7|
7,3,7.1|
7,4,1.5|
7,5,6.5|
7,6,7.1|
7,7,7.2|
];
constraint_x14_x10=[
0,0,7.6|
0,1,2.2|
0,2,1.6|
0,3,1|
0,4,2.8|
0,5,6.6|
0,6,6.7|
0,7,0.059|
1,0,1.9|
1,1,0.79|
1,2,4.3|
1,3,7.3|
1,4,2.7|
1,5,9.9|
1,6,8.7|
1,7,6.8|
2,0,3.1|
2,1,3.2|
2,2,2.4|
2,3,8.1|
2,4,9.4|
2,5,2.1|
2,6,3.8|
2,7,7.9|
3,0,4.6|
3,1,3.5|
3,2,2.7|
3,3,6.1|
3,4,6.1|
3,5,9.4|
3,6,7.6|
3,7,9|
4,0,3.2|
4,1,2.2|
4,2,2.6|
4,3,0.78|
4,4,3.1|
4,5,6.6|
4,6,3.5|
4,7,1.9|
5,0,1.2|
5,1,2.5|
5,2,5.9|
5,3,1.5|
5,4,5.2|
5,5,0.49|
5,6,5.3|
5,7,0.49|
6,0,8.4|
6,1,2.2|
6,2,3.7|
6,3,0.67|
6,4,6.4|
6,5,2|
6,6,9.6|
6,7,5.8|
7,0,4.9|
7,1,5.3|
7,2,0.37|
7,3,6.6|
7,4,2.7|
7,5,5.9|
7,6,4.9|
7,7,1.2|
];
constraint_x15_x11=[
0,0,3.6|
0,1,3.8|
0,2,4.9|
0,3,8.1|
0,4,4.9|
0,5,4.6|
0,6,0.86|
0,7,2.1|
1,0,9.7|
1,1,0.29|
1,2,3.6|
1,3,7.4|
1,4,8.8|
1,5,6.6|
1,6,5|
1,7,8.1|
2,0,8.6|
2,1,9.4|
2,2,8.3|
2,3,9|
2,4,6.1|
2,5,9.2|
2,6,0.15|
2,7,9.2|
3,0,7.4|
3,1,9.6|
3,2,7.9|
3,3,5.1|
3,4,5.6|
3,5,1.5|
3,6,7.3|
3,7,2|
4,0,6.9|
4,1,0.38|
4,2,5|
4,3,0.71|
4,4,2.2|
4,5,5.7|
4,6,6.3|
4,7,7.7|
5,0,2.3|
5,1,3|
5,2,7.8|
5,3,8.2|
5,4,2.5|
5,5,9.3|
5,6,0.26|
5,7,6.9|
6,0,4.9|
6,1,4.4|
6,2,6.7|
6,3,7.3|
6,4,4.8|
6,5,9.9|
6,6,8|
6,7,0.95|
7,0,8.7|
7,1,8.8|
7,2,9.8|
7,3,4.9|
7,4,3.4|
7,5,2.8|
7,6,4.9|
7,7,9|
];
constraint_x16_x12=[
0,0,7.4|
0,1,9.4|
0,2,6.4|
0,3,4.9|
0,4,7.9|
0,5,1.8|
0,6,7|
0,7,7|
1,0,8.3|
1,1,1.3|
1,2,3.8|
1,3,7.6|
1,4,2.6|
1,5,6.6|
1,6,4.5|
1,7,8.7|
2,0,1.8|
2,1,9.8|
2,2,4|
2,3,3.3|
2,4,9.5|
2,5,8.2|
2,6,9.3|
2,7,4.2|
3,0,7.8|
3,1,2.7|
3,2,8.5|
3,3,9.2|
3,4,8.9|
3,5,7.1|
3,6,6.5|
3,7,0.031|
4,0,1.5|
4,1,5.3|
4,2,9.9|
4,3,2|
4,4,2.3|
4,5,1.2|
4,6,6|
4,7,0.66|
5,0,7.2|
5,1,4.5|
5,2,6.4|
5,3,5.6|
5,4,1.5|
5,5,4|
5,6,7.4|
5,7,9.7|
6,0,9.4|
6,1,9.2|
6,2,7|
6,3,5.5|
6,4,1.6|
6,5,9.5|
6,6,9.7|
6,7,5.9|
7,0,0.64|
7,1,5|
7,2,9.2|
7,3,6.2|
7,4,3.2|
7,5,9.3|
7,6,4.4|
7,7,0.074|
];
constraint_x1_y1=[
0,0,1.3|
0,1,2.8|
0,2,9.4|
0,3,1.4|
0,4,0.8|
0,5,5.1|
0,6,1.1|
0,7,6.3|
1,0,4.1|
1,1,0.49|
1,2,5.7|
1,3,5.4|
1,4,5.3|
1,5,8.3|
1,6,3.5|
1,7,8|
2,0,8.9|
2,1,5.8|
2,2,7.8|
2,3,0.86|
2,4,9.6|
2,5,4.9|
2,6,4.9|
2,7,1.9|
3,0,0.69|
3,1,1.4|
3,2,4.4|
3,3,7.6|
3,4,4.6|
3,5,4.2|
3,6,0.44|
3,7,1.9|
4,0,2.1|
4,1,4.6|
4,2,7.7|
4,3,9.2|
4,4,4.1|
4,5,2.3|
4,6,3.6|
4,7,0.65|
5,0,1.2|
5,1,8|
5,2,8.3|
5,3,8|
5,4,0.38|
5,5,6.8|
5,6,5.5|
5,7,2.6|
6,0,1.5|
6,1,2.6|
6,2,0.93|
6,3,5.7|
6,4,2.1|
6,5,1.2|
6,6,2.1|
6,7,0.28|
7,0,7.3|
7,1,5.9|
7,2,2.7|
7,3,3.1|
7,4,1.9|
7,5,3.3|
7,6,4|
7,7,9.4|
];
constraint_x2_y2=[
0,0,1.6|
0,1,9.9|
0,2,0.23|
0,3,7.4|
0,4,6.2|
0,5,2.5|
0,6,1.7|
0,7,8.1|
1,0,4.8|
1,1,3.3|
1,2,0.83|
1,3,0.51|
1,4,9.6|
1,5,1|
1,6,4.8|
1,7,0.72|
2,0,7.6|
2,1,8.4|
2,2,6.1|
2,3,3.7|
2,4,8.4|
2,5,6.4|
2,6,2.2|
2,7,5.2|
3,0,8.8|
3,1,6.4|
3,2,6.6|
3,3,7.9|
3,4,4.7|
3,5,1.3|
3,6,9.6|
3,7,0.53|
4,0,0.37|
4,1,7.9|
4,2,0.85|
4,3,1.2|
4,4,3.7|
4,5,3.5|
4,6,9.5|
4,7,5.2|
5,0,9.8|
5,1,6.3|
5,2,9|
5,3,7|
5,4,2.7|
5,5,0.75|
5,6,8.8|
5,7,8.1|
6,0,9.5|
6,1,3.8|
6,2,3.8|
6,3,3|
6,4,8.6|
6,5,6.9|
6,6,3.1|
6,7,4.2|
7,0,8.3|
7,1,8.9|
7,2,6.1|
7,3,5|
7,4,3.1|
7,5,3.3|
7,6,0.55|
7,7,4.5|
];
constraint_x3_y3=[
0,0,7.5|
0,1,9.8|
0,2,1.8|
0,3,7.7|
0,4,3.6|
0,5,1.7|
0,6,7.3|
0,7,4.7|
1,0,1.6|
1,1,1.9|
1,2,0.068|
1,3,9.7|
1,4,5.4|
1,5,1|
1,6,4.1|
1,7,2.3|
2,0,1|
2,1,6|
2,2,5.4|
2,3,4.7|
2,4,0.64|
2,5,7.2|
2,6,0.52|
2,7,0.43|
3,0,8.1|
3,1,3.7|
3,2,8.6|
3,3,9.4|
3,4,0.45|
3,5,6.5|
3,6,6.8|
3,7,0.1|
4,0,2.3|
4,1,5.8|
4,2,3.1|
4,3,9.7|
4,4,9.6|
4,5,4.1|
4,6,7.5|
4,7,4.7|
5,0,8.1|
5,1,0.99|
5,2,2.4|
5,3,3.1|
5,4,4.5|
5,5,5.8|
5,6,5.8|
5,7,6.6|
6,0,5.8|
6,1,4.9|
6,2,1.7|
6,3,8|
6,4,8.3|
6,5,8.1|
6,6,4.5|
6,7,7.4|
7,0,9.9|
7,1,9.2|
7,2,1.7|
7,3,2.3|
7,4,5|
7,5,3.8|
7,6,4.3|
7,7,4.2|
];
constraint_x4_y4=[
0,0,3.1|
0,1,0.86|
0,2,2.8|
0,3,8.7|
0,4,1.8|
0,5,8.2|
0,6,6.7|
0,7,3|
1,0,4.8|
1,1,4.7|
1,2,4.7|
1,3,3.1|
1,4,1.9|
1,5,5.2|
1,6,3.2|
1,7,1.9|
2,0,9.3|
2,1,7.9|
2,2,6.6|
2,3,2|
2,4,5.4|
2,5,6.5|
2,6,8.2|
2,7,2|
3,0,9.3|
3,1,9.5|
3,2,4.1|
3,3,8.4|
3,4,9.6|
3,5,4.6|
3,6,3.9|
3,7,1.2|
4,0,9.4|
4,1,2|
4,2,7.5|
4,3,1.9|
4,4,6|
4,5,2.2|
4,6,1.1|
4,7,4.2|
5,0,5.6|
5,1,5.5|
5,2,3.5|
5,3,1.5|
5,4,2.1|
5,5,4.3|
5,6,8.1|
5,7,8.6|
6,0,7.2|
6,1,5.6|
6,2,8.8|
6,3,9.9|
6,4,1.5|
6,5,7.5|
6,6,7.9|
6,7,1.1|
7,0,5.6|
7,1,4.4|
7,2,7.9|
7,3,0.23|
7,4,5.3|
7,5,8.1|
7,6,0.24|
7,7,0.53|
];
constraint_x5_y5=[
0,0,8.8|
0,1,8.8|
0,2,1.1|
0,3,9.8|
0,4,1.9|
0,5,4.8|
0,6,1.1|
0,7,4.4|
1,0,8.9|
1,1,3.1|
1,2,0.32|
1,3,4.9|
1,4,8.8|
1,5,3.2|
1,6,4.1|
1,7,2.2|
2,0,3|
2,1,3.1|
2,2,9.9|
2,3,1.1|
2,4,2.9|
2,5,6.8|
2,6,0.01|
2,7,9.3|
3,0,6.2|
3,1,4.6|
3,2,6.7|
3,3,5.6|
3,4,3.1|
3,5,0.46|
3,6,2.1|
3,7,9.4|
4,0,0.42|
4,1,0.89|
4,2,9.6|
4,3,3.1|
4,4,9.5|
4,5,8.2|
4,6,4|
4,7,6.6|
5,0,9.9|
5,1,7.3|
5,2,6.8|
5,3,3.3|
5,4,0.31|
5,5,4.1|
5,6,4|
5,7,7.5|
6,0,3.9|
6,1,0.95|
6,2,1.4|
6,3,9.4|
6,4,0.55|
6,5,0.28|
6,6,0.35|
6,7,5.2|
7,0,8|
7,1,7.4|
7,2,9.9|
7,3,3.5|
7,4,6.3|
7,5,2.9|
7,6,8.4|
7,7,4.9|
];
constraint_x6_y6=[
0,0,3.2|
0,1,1.6|
0,2,2.2|
0,3,6.5|
0,4,1.7|
0,5,7.6|
0,6,5.5|
0,7,5.4|
1,0,3|
1,1,6.4|
1,2,3.4|
1,3,6.7|
1,4,7.3|
1,5,9|
1,6,3.7|
1,7,7.3|
2,0,3.7|
2,1,2.3|
2,2,8.3|
2,3,9.7|
2,4,6.3|
2,5,9.9|
2,6,7.2|
2,7,2.3|
3,0,3.3|
3,1,8.6|
3,2,2.3|
3,3,4.2|
3,4,4|
3,5,10|
3,6,7.5|
3,7,7.6|
4,0,2.5|
4,1,6.3|
4,2,9.8|
4,3,1.9|
4,4,8.7|
4,5,3|
4,6,4|
4,7,2.9|
5,0,2.3|
5,1,7.3|
5,2,5.3|
5,3,2.5|
5,4,5.5|
5,5,2.8|
5,6,0.65|
5,7,8.7|
6,0,7.4|
6,1,0.82|
6,2,8.7|
6,3,5.2|
6,4,9.1|
6,5,5.8|
6,6,5.6|
6,7,7.4|
7,0,9|
7,1,4.6|
7,2,0.18|
7,3,8.6|
7,4,0.79|
7,5,0.15|
7,6,6.9|
7,7,7.5|
];
constraint_x7_y7=[
0,0,4.6|
0,1,3.3|
0,2,6.5|
0,3,4.8|
0,4,1.6|
0,5,0.17|
0,6,4.6|
0,7,9.3|
1,0,7|
1,1,6.7|
1,2,6.4|
1,3,9.5|
1,4,4.1|
1,5,2.5|
1,6,3.3|
1,7,7.6|
2,0,5.5|
2,1,8.4|
2,2,1.6|
2,3,2.1|
2,4,4.9|
2,5,4.1|
2,6,2.4|
2,7,2.9|
3,0,7.2|
3,1,8.8|
3,2,2.2|
3,3,1.3|
3,4,8.4|
3,5,6.4|
3,6,2|
3,7,1.8|
4,0,6.7|
4,1,4.5|
4,2,7.2|
4,3,6.9|
4,4,0.44|
4,5,2.5|
4,6,7.7|
4,7,5.3|
5,0,4.1|
5,1,4.4|
5,2,8.1|
5,3,4.8|
5,4,4.8|
5,5,4.8|
5,6,4|
5,7,9.2|
6,0,8.2|
6,1,4.4|
6,2,6|
6,3,5.7|
6,4,5.1|
6,5,6.8|
6,6,0.23|
6,7,0.39|
7,0,1.9|
7,1,0.33|
7,2,0.2|
7,3,4|
7,4,1.4|
7,5,2.1|
7,6,0.52|
7,7,2.3|
];
initial_distribution_y1=[0.14,0.11,0.16,0.079,0.15,0.045,0.13,0.19];
initial_distribution_y2=[0.1,0.013,0.072,0.16,0.056,0.21,0.25,0.13];
initial_distribution_y3=[0.096,0.16,0.024,0.15,0.18,0.039,0.086,0.27];
initial_distribution_y4=[0.12,0.083,0.24,0.082,0.12,0.046,0.18,0.13];
initial_distribution_y5=[0.17,0.18,0.15,0.1,0.13,0.11,0.097,0.07];
initial_distribution_y6=[0.26,0.15,0.064,0.02,0.073,0.012,0.24,0.19];
initial_distribution_y7=[0.044,0.12,0.21,0.063,0.11,0.21,0.23,0.016];
transition_y1=[
0.044,0.13,0.056,0.017,0.22,0.18,0.11,0.24|
0.22,0.076,0.0093,0.16,0.085,0.23,0.15,0.084|
0.12,0.031,0.17,0.058,0.067,0.21,0.14,0.2|
0.11,0.05,0.2,0.17,0.11,0.11,0.17,0.077|
0.021,0.063,0.11,0.2,0.027,0.26,0.097,0.22|
0.15,0.21,0.062,0.078,0.2,0.077,0.094,0.13|
0.063,0.13,0.13,0.19,0.092,0.088,0.18,0.12|
0.13,0.21,0.12,0.21,0.039,0.18,0.05,0.063|
];
transition_y2=[
0.012,0.24,0.079,0.0099,0.26,0.055,0.19,0.15|
0.23,0.0059,0.25,0.041,0.055,0.12,0.22,0.074|
0.35,0.0046,0.037,0.28,0.21,0.05,0.013,0.06|
0.23,0.2,0.049,0.14,0.1,0.068,0.019,0.19|
0.081,0.17,0.062,0.085,0.18,0.11,0.11,0.21|
0.16,0.094,0.02,0.15,0.25,0.024,0.014,0.29|
0.13,0.024,0.21,0.17,0.21,0.021,0.16,0.08|
0.26,0.13,0.037,0.13,0.026,0.21,0.086,0.12|
];
transition_y3=[
0.18,0.11,0.12,0.22,0.11,0.1,0.095,0.056|
0.17,0.04,0.13,0.045,0.061,0.25,0.091,0.21|
0.17,0.072,0.13,0.18,0.13,0.1,0.044,0.18|
0.16,0.2,0.029,0.22,0.038,0.054,0.084,0.23|
0.15,0.029,0.17,0.17,0.17,0.025,0.12,0.17|
0.019,0.15,0.08,0.057,0.26,0.18,0.21,0.049|
0.26,0.18,0.19,0.013,0.13,0.049,0.094,0.088|
0.15,0.17,0.035,0.12,0.091,0.14,0.15,0.15|
];
transition_y4=[
0.21,0.15,0.17,0.081,0.012,0.078,0.12,0.17|
0.2,0.098,0.15,0.051,0.23,0.092,0.11,0.069|
0.12,0.088,0.13,0.067,0.086,0.26,0.17,0.079|
0.023,0.095,0.28,0.16,0.085,0.25,0.043,0.066|
0.13,0.29,0.041,0.0059,0.0047,0.049,0.3,0.18|
0.067,0.2,0.035,0.073,0.14,0.21,0.076,0.21|
0.12,0.038,0.16,0.22,0.2,0.21,0.021,0.029|
0.15,0.18,0.17,0.0033,0.13,0.1,0.16,0.092|
];
transition_y5=[
0.29,0.13,0.05,0.049,0.12,0.17,0.14,0.059|
0.1,0.11,0.077,0.13,0.35,0.1,0.082,0.05|
0.31,0.027,0.093,0.069,0.1,0.31,0.031,0.059|
0.14,0.17,0.039,0.015,0.23,0.079,0.15,0.18|
0.15,0.1,0.17,0.15,0.16,0.17,0.035,0.061|
0.091,0.0099,0.13,0.21,0.16,0.09,0.19,0.12|
0.091,0.19,0.12,0.071,0.21,0.063,0.066,0.19|
0.046,0.21,0.18,0.06,0.14,0.064,0.13,0.16|
];
transition_y6=[
0.17,0.11,0.2,0.16,0.12,0.02,0.13,0.096|
0.15,0.16,0.2,0.018,0.072,0.09,0.15,0.16|
0.11,0.16,0.1,0.027,0.2,0.14,0.2,0.059|
0.13,0.071,0.16,0.16,0.025,0.19,0.17,0.097|
0.012,0.21,0.2,0.097,0.21,0.091,0.15,0.034|
0.18,0.096,0.091,0.095,0.13,0.14,0.11,0.15|
0.044,0.17,0.2,0.078,0.15,0.14,0.036,0.18|
0.018,0.1,0.12,0.19,0.13,0.2,0.044,0.19|
];
transition_y7=[
0.2,0.14,0.042,0.14,0.053,0.15,0.22,0.058|
0.14,0.17,0.15,0.17,0.17,0.1,0.094,0.0048|
0.13,0.075,0.024,0.024,0.0088,0.22,0.26,0.26|
0.18,0.088,0.22,0.12,0.16,0.05,0.043,0.14|
0.086,0.14,0.063,0.12,0.092,0.19,0.11,0.19|
0.12,0.092,0.15,0.19,0.012,0.19,0.071,0.18|
0.05,0.064,0.23,0.094,0.24,0.0042,0.23,0.086|
0.23,0.031,0.034,0.21,0.063,0.23,0.088,0.12|
];
